(declare-fun e () String)
(declare-fun g () String)
(declare-fun d () String)
(declare-fun f () String)
(declare-fun a () String)
(declare-fun h () String)
(assert (= g h))
(assert (= (str.++ "fb" f a f) (str.++ "h" e "c")))
(assert (= d (str.++ "bae" d "f")))

(check-sat)
